
  24    0


   0  13 2 3 4 6 7 11 17 18 19 20 21 22 23 
   4   3 16 15 10 
   5   3 14 12 9 
   7   1 5 
   2   2 13 8 
  10   2 13 12 
   8   1 8 
   3   1 12 
   1   1 13 
   3   1 12 
   4   1 13 
   7   1 24
   6   1 24
   6   1 24
   9   1 24
   1   1 24
   3   1 24
   4   1 24
   1   1 24
  10   1 24
   6   1 24
   6   1 24
   1   1 24
   0   0 
